390 1341
8649 7545
2148 4856
9964 5115
1244 1414
1284 3210
8042 4508
7749 4902
1969 3215
8984 5612
1861 2770
9411 9459
7035 2863
1062 5677
5359 8370
2270 8292
2585 6269
4531 2571
8225 6551
1664 1685
9833 2418
7977 1113
563 2784
5282 9050
2641 4211
9981 9297
9028 6536
2018 4339
8503 3862
1583 8048
8757 889
5958 415
9728 4900
534 5071
2482 5456
6930 3705
2896 2295
9017 2813
9372 3349
7061 579
1559 2003
7319 2738
3469 2251
910 2863
7519 8825
1931 9520
8702 3890
7739 6039
9882 4417
9604 9556
